; input_dword_0
(declare-fun a () (_ BitVec 32))
(let ((?x966 ((_ extract 31 30) (bvadd (_ bv1169698645 32) (bvnot a)))))
(let ((?x991 ((_ extract 4 4) (bvadd (_ bv21 5) (concat (bvadd (_ bv5 3) (bvnot ((_ extract 2 0) a))) ?x966)))))
(let ((?x999 (bvnot ?x991)))
(let ((?x952 ((_ extract 15 5) (bvadd (_ bv35861 16) (concat (bvadd (_ bv12117 14) (bvnot ((_ extract 13 0) a))) ?x966)))))
(let ((?x1002 (concat ((_ extract 29 27) (bvadd (_ bv1169698645 32) (bvnot a))) (bvadd (_ bv95956821 27) (bvnot ((_ extract 26 0) a))) ?x966)))
(let ((?x980 (bvadd (_ bv3493170197 32) ?x1002)))
(let ((?x1003 (concat (bvnot (bvadd (_ bv5 4) (concat (bvadd (_ bv1 2) (bvnot ((_ extract 1 0) a))) ?x966))) (bvnot ((_ extract 31 17) ?x980)) (bvnot ((_ extract 16 16) ?x980)) (bvnot ?x952) ?x999)))
(let ((?x1008 (bvadd (_ bv422262738 32) ?x1003)))
(let ((?x1017 (concat (bvnot ((_ extract 26 17) ?x980)) (bvnot ((_ extract 16 16) ?x980)) (bvnot ?x952) ?x999)))
(let ((?x1018 (bvadd (_ bv2832338 23) ?x1017)))
(let ((?x1085 (concat (bvnot ((_ extract 22 21) ?x1018)) ((_ extract 20 17) ?x1018) (bvnot ((_ extract 16 16) ?x1018)) ((_ extract 15 15) ?x1018) (bvnot ((_ extract 14 14) ?x1018)) ((_ extract 13 12) ?x1018) (bvnot ((_ extract 11 11) ?x1018)) ((_ extract 10 10) ?x1018) (bvnot ((_ extract 9 7) ?x1018)) ((_ extract 6 6) ?x1018) (bvnot ((_ extract 5 5) ?x1018)) ((_ extract 4 4) ?x1018) (bvnot ((_ extract 3 1) ?x1018)) ?x999 ((_ extract 31 31) ?x1008) (bvnot ((_ extract 30 30) ?x1008)) ((_ extract 29 29) ?x1008) (bvnot ((_ extract 28 28) ?x1008)) ((_ extract 27 25) ?x1008) (bvnot ((_ extract 24 23) ?x1008)))))
(let ((?x1025 (concat (bvadd (_ bv12 4) (concat ((_ extract 26 25) ?x1008) (bvnot ((_ extract 24 23) ?x1008)))) ((_ extract 31 4) (bvadd (_ bv1338037900 32) ?x1085)))))
(let ((?x984 (bvnot ((_ extract 17 17) (bvadd (_ bv2036738909 32) ?x1025)))))
(let ((?x1001 (concat (bvnot (bvadd (_ bv11101 17) ((_ extract 20 4) (bvadd (_ bv1338037900 32) ?x1085)))) (bvnot ((_ extract 31 17) (bvadd (_ bv2036738909 32) ?x1025))))))
(let ((?x1010 (bvadd (_ bv3562860298 32) ?x1001)))
(let ((?x1004 (bvnot ((_ extract 1 1) ?x1010))))
(let ((?x1201 ((_ extract 3 3) (bvadd (_ bv6 5) (concat (bvnot ((_ extract 4 4) ?x1010)) ((_ extract 3 2) ?x1010) ?x1004 ?x984)))))
(let ((?x1196 ((_ extract 4 4) (bvadd (_ bv6 5) (concat (bvnot ((_ extract 4 4) ?x1010)) ((_ extract 3 2) ?x1010) ?x1004 ?x984)))))
(let ((?x1020 (concat ((_ extract 31 31) ?x1010) (bvnot ((_ extract 30 30) ?x1010)) ((_ extract 29 29) ?x1010) (bvnot ((_ extract 28 28) ?x1010)) ((_ extract 27 27) ?x1010) (bvnot ((_ extract 26 25) ?x1010)) ((_ extract 24 23) ?x1010) (bvnot ((_ extract 22 22) ?x1010)) ((_ extract 21 17) ?x1010) (bvnot ((_ extract 16 13) ?x1010)) ((_ extract 12 12) ?x1010) (bvnot ((_ extract 11 11) ?x1010)) ((_ extract 10 9) ?x1010) (bvnot ((_ extract 8 4) ?x1010)) ((_ extract 3 2) ?x1010) ?x1004 ?x984)))
(let ((?x1061 (bvadd (_ bv4035799430 32) ?x1020)))
(let ((?x1206 (concat (bvnot ((_ extract 2 2) (bvadd (_ bv6 3) (concat ((_ extract 2 2) ?x1010) ?x1004 ?x984)))) ((_ extract 1 1) (bvadd (_ bv6 3) (concat ((_ extract 2 2) ?x1010) ?x1004 ?x984))) ((_ extract 17 17) (bvadd (_ bv2036738909 32) ?x1025)) ((_ extract 31 30) ?x1061) (bvnot ((_ extract 29 29) ?x1061)) ((_ extract 28 27) ?x1061) (bvnot ((_ extract 26 25) ?x1061)) ((_ extract 24 22) ?x1061) (bvnot ((_ extract 21 21) ?x1061)) ((_ extract 20 16) ?x1061) (bvnot ((_ extract 15 15) ?x1061)) ((_ extract 14 12) ?x1061) (bvnot ((_ extract 11 9) ?x1061)) (bvnot ((_ extract 8 8) ?x1061)) ((_ extract 7 7) ?x1061) (bvnot ((_ extract 6 6) ?x1061)) (bvnot ((_ extract 5 5) ?x1061)) ?x1196 (bvnot ?x1201))))
(let ((?x1043 (bvadd (_ bv3499560052 32) ?x1206)))
(let ((?x1230 ((_ extract 14 13) ?x1043)))
(let ((?x1223 (concat (bvnot ((_ extract 12 12) ?x1043)) ((_ extract 11 11) ?x1043) (bvnot ((_ extract 10 10) ?x1043)) ((_ extract 9 9) ?x1043) (bvnot ((_ extract 8 7) ?x1043)) ((_ extract 6 6) ?x1043) (bvnot ((_ extract 5 5) ?x1043)) ((_ extract 4 3) ?x1043) (bvnot ((_ extract 2 2) ?x1043)) ((_ extract 1 1) ?x1043) (bvnot ?x1201) (bvnot ((_ extract 31 30) ?x1043)) ((_ extract 29 28) ?x1043) (bvnot ((_ extract 27 27) ?x1043)) ((_ extract 26 25) ?x1043) (bvnot ((_ extract 24 15) ?x1043)) ?x1230)))
(let ((?x1005 (bvadd (_ bv2171031339 32) ?x1223)))
(let ((?x1229 (concat (bvnot ((_ extract 14 13) ?x1005)) (bvnot ((_ extract 12 12) ?x1005)) (bvnot ((_ extract 11 11) (bvadd (_ bv3883 12) (concat (bvnot ((_ extract 24 15) ?x1043)) ?x1230)))) ((_ extract 10 8) (bvadd (_ bv3883 12) (concat (bvnot ((_ extract 24 15) ?x1043)) ?x1230))) (bvnot ((_ extract 7 5) (bvadd (_ bv3883 12) (concat (bvnot ((_ extract 24 15) ?x1043)) ?x1230)))) ((_ extract 4 3) (bvadd (_ bv3883 12) (concat (bvnot ((_ extract 24 15) ?x1043)) ?x1230))) (bvnot ((_ extract 2 1) (bvadd (_ bv3 3) (concat (bvnot ((_ extract 15 15) ?x1043)) ?x1230)))) (bvnot (bvadd (_ bv1 1) ((_ extract 13 13) ?x1043))) (bvnot ((_ extract 31 30) ?x1005)) ((_ extract 29 22) ?x1005) (bvnot ((_ extract 21 21) ?x1005)) ((_ extract 20 20) ?x1005) (bvnot ((_ extract 19 19) ?x1005)) ((_ extract 18 16) ?x1005) (bvnot ((_ extract 15 15) ?x1005)))))
(let ((?x1132 (concat ((_ extract 23 22) ?x1005) (bvnot ((_ extract 21 21) ?x1005)) ((_ extract 20 20) ?x1005) (bvnot ((_ extract 19 19) ?x1005)) ((_ extract 18 16) ?x1005) (bvnot ((_ extract 15 15) ?x1005)))))
(concat ((_ extract 28 9) (bvadd (_ bv2400525917 32) ?x1229)) (bvadd (_ bv93 9) ?x1132) ((_ extract 31 29) (bvadd (_ bv2400525917 32) ?x1229))))))))))))))))))))))))))))))